SarsaL 2500 DD 2197 79812 64068 65958 70405 76077 67670 79434 138236 139788 146284 154320 163984 125020 129645 135234 150910 134384 122690 134077 136949 132292 143273 131270 152278 120707 144155 137656 144186 147662 144515 146959 1035 131227 122364 155894 149954 138113 131329 1708 130593 2700 146315 154964 149455 132346 130634 165190 156245 138417

SarsaL 2500 DD_pt 2196 84525 62655 66233 60911 77880 65540 61535 75890 68284 67542 62351 54461 60844 63866 57461 59865 60200 62057 58988 56567 60021 71684 64190 86581 62004 62575 69720 58324 67300 66454 70386 1021 63519 58048 64356 75814 58863 66525 2248 72681 2672 75241 60596 54148 63608 60304 73298 70930 74747

SarsaL 2500 random 2224 107437 103146 102492 114789 102777 98272 104188 113365 96964 103625 105055 118649 87314 99683 96055 87587 87210 101349 101491 107810 92738 108799 103047 106722 86112 103603 104186 102163 105983 109752 101694 1035 103042 88687 106586 105461 92896 97819 82113 95481 2891 101588 108559 98444 88426 86749 125126 107210 97741

